22
3 59 20 19 
2 43 13 
3 42 15 9 
3 10 56 14 
2 58 3 
3 26 28 11 
3 47 8 41 
3 33 18 52 
3 5 17 49 
3 6 60 50 
3 2 4 35 
3 1 53 57 
2 22 21 
3 31 24 20 
2 58 39 
3 44 46 37 
2 7 25 
3 32 51 3 
3 40 30 38 
3 29 27 48 
3 23 2 35 
2 55 22 
